c Result of efficient AIG-to-CNF conversion using package CNF
p cnf 9 18
-2 -3 -4 0
-2 3 4 0
2 3 -4 0
2 -3 4 0
-3 -9 -10 0
-3 9 10 0
3 9 -10 0
3 -9 10 0
4 -8 5 0
4 8 -5 0
-4 8 5 0
-4 -8 -5 0
-5 -6 -7 0
-5 6 7 0
5 6 -7 0
5 -6 7 0
-11 0
2 0

